% Generated FlatZinc statistics:
%%%mzn-stat: paths=0
%%%mzn-stat: flatBoolVars=608
%%%mzn-stat: flatIntVars=8627
%%%mzn-stat: flatIntConstraints=16560
%%%mzn-stat: evaluatedReifiedConstraints=5553
%%%mzn-stat: evaluatedHalfReifiedConstraints=1496
%%%mzn-stat: method="minimize"
%%%mzn-stat: flatTime=0.829474
%%%mzn-stat-end
%%%mzn-stat: objective=12986
%%%mzn-stat: objectiveBound=6581
%%%mzn-stat: nodes=976
%%%mzn-stat: solveTime=59.1857
%%%mzn-stat-end
end = 69
carga_por_operario = [57, 44, 43, 43]
desbalance = 14
Job 1:   8(op:1)  12(op:1)  19(op:4)  21(op:4)  29(op:2)
Job 2:  13(op:1)  23(op:1)  30(op:1)  41(op:4)  48(op:2)
Job 3:  18(op:2)  25(op:2)  33(op:2)  34(op:4)  42(op:2)
Job 4:   0(op:2)   3(op:4)  28(op:2)  29(op:4)  34(op:2)
Job 5:  32(op:1)  40(op:1)  49(op:4)  55(op:1)  63(op:3)
Job 6:  29(op:3)  35(op:3)  40(op:3)  53(op:3)  56(op:4)
Job 7:  26(op:1)  48(op:1)  55(op:3)  64(op:1)  67(op:2)
Job 8:   2(op:1)   9(op:2)  11(op:3)  15(op:3)  22(op:3)
----------
%%%mzn-stat: objective=12986
%%%mzn-stat: objectiveBound=6581
%%%mzn-stat: nodes=976
%%%mzn-stat: solveTime=59.1857
%%%mzn-stat-end
%%%mzn-stat: nSolutions=1
%%%mzn-stat-end
